(set-logic HORN)
(declare-fun state (Int (Array Int Int) (Array Int Int) (Array Int Int) (Array Int Int) Int Int (Array Int Int) (Array Int Int) Int Int Int Int Int Int Int Int Int Int Int Int Int Int Int Int Int Int Int Int Int Int Int Int Int Int Int Int Int Bool Bool Bool Bool Bool Int (Array Int Int) Int) Bool)
(assert (forall ((|hhv_ULTIMATE.start_ULTIMATE.startFINAL_0_Int| Int) (|hhv_ULTIMATE.start_ULTIMATE.startFINAL_1_Array_Int_Int| (Array Int Int)) (|hhv_ULTIMATE.start_ULTIMATE.startFINAL_2_Array_Int_Int| (Array Int Int)) (|hhv_ULTIMATE.start_ULTIMATE.startFINAL_3_Array_Int_Array_Int_Int| (Array Int Int)) (|hhv_ULTIMATE.start_ULTIMATE.startFINAL_4_Array_Int_Array_Int_Int| (Array Int Int)) (|hhv_ULTIMATE.start_ULTIMATE.startFINAL_5_Int| Int) (|hhv_ULTIMATE.start_ULTIMATE.startFINAL_6_Int| Int) (|hhv_ULTIMATE.start_ULTIMATE.startFINAL_7_Array_Int_Int| (Array Int Int)) (|hhv_ULTIMATE.start_ULTIMATE.startFINAL_8_Array_Int_Int| (Array Int Int)) (|hhv_ULTIMATE.start_ULTIMATE.startFINAL_9_Int| Int) (|hhv_ULTIMATE.start_ULTIMATE.startFINAL_10_Int| Int) (|hhv_ULTIMATE.start_ULTIMATE.startFINAL_11_Int| Int) (|hhv_ULTIMATE.start_ULTIMATE.startFINAL_12_Int| Int) (|hhv_ULTIMATE.start_ULTIMATE.startFINAL_13_Int| Int) (|hhv_ULTIMATE.start_ULTIMATE.startFINAL_14_Int| Int) (|hhv_ULTIMATE.start_ULTIMATE.startFINAL_15_Int| Int) (|hhv_ULTIMATE.start_ULTIMATE.startFINAL_16_Int| Int) (|hhv_ULTIMATE.start_ULTIMATE.startFINAL_17_Int| Int) (|hhv_ULTIMATE.start_ULTIMATE.startFINAL_18_Int| Int) (|hbv_ULTIMATE.start_L59_19_Int| Int) (|hhv_ULTIMATE.start_ULTIMATE.startFINAL_20_Int| Int) (|hhv_ULTIMATE.start_ULTIMATE.startFINAL_21_Int| Int) (|hhv_ULTIMATE.start_ULTIMATE.startFINAL_22_Int| Int) (|hhv_ULTIMATE.start_ULTIMATE.startFINAL_23_Int| Int) (|hhv_ULTIMATE.start_ULTIMATE.startFINAL_24_Int| Int) (|hhv_ULTIMATE.start_ULTIMATE.startFINAL_25_Int| Int) (|hhv_ULTIMATE.start_ULTIMATE.startFINAL_26_Int| Int) (|hhv_ULTIMATE.start_ULTIMATE.startFINAL_27_Int| Int) (|hhv_ULTIMATE.start_ULTIMATE.startFINAL_28_Int| Int) (|hhv_ULTIMATE.start_ULTIMATE.startFINAL_29_Int| Int) (|hhv_ULTIMATE.start_ULTIMATE.startFINAL_30_Int| Int) (|hhv_ULTIMATE.start_ULTIMATE.startFINAL_31_Int| Int) (|hhv_ULTIMATE.start_ULTIMATE.startFINAL_32_Int| Int) (|hhv_ULTIMATE.start_ULTIMATE.startFINAL_33_Int| Int) (|hhv_ULTIMATE.start_ULTIMATE.startFINAL_34_Int| Int) (|hhv_ULTIMATE.start_ULTIMATE.startFINAL_35_Int| Int) (|hhv_ULTIMATE.start_ULTIMATE.startFINAL_36_Int| Int) (|hhv_ULTIMATE.start_ULTIMATE.startFINAL_37_Int| Int) (|hhv_ULTIMATE.start_ULTIMATE.startFINAL_38_Bool| Bool) (|.loc.5| Bool) (|.loc.6| Bool) (|.loc.7| Bool) (|.loc.8| Bool) (|hbv_ULTIMATE.start_L27_35_Int| Int) (|hbv_ULTIMATE.start_L-1_1_Array_Int_Int| (Array Int Int)) (|hbv_ULTIMATE.start_L43_22_Int| Int) (|.x.472| Int) (|.x.470| (Array Int Int)) (|.x.468| Int) (|.x.466| (Array Int Int)) (|.x.462| Int) (|.x.464| (Array Int Int)) (|.x.481| Int) (|.x.474| Int) (|.x.491| Int) (|.x.496| Int) (|.x.500| Bool) (|.x.478| Int) (|.x.463| (Array Int Int)) (|.x.488| Int) (|.x.490| Int) (|.x.495| Int) (|.x.497| Int) (|.x.498| Int) (|.loc.9| Bool) (|.x.489| Int) (|.loc.11| Bool) (|.x.499| Int) (|.loc.10| Bool) (|.x.494| Int) (|.x.482| Int) (|.loc.12| Bool) (|.x.473| Int) (|.x.465| (Array Int Int)) (|.x.479| Int) (|.x.485| Int) (|.x.493| Int) (|.x.483| Int) (|.x.480| Int) (|.x.484| Int) (|.x.486| Int) (|.x.487| Int) (|.x.477| Int) (|.x.475| Int) (|.x.476| Int) (|.x.492| Int) (|.x.469| (Array Int Int)) (|.x.467| Int) (|.x.471| Int) (|.xtv.1| Int) (|.xtv.2| (Array Int Int)) (|.xtv.3| Int)) (=> (and (and (and (and (not .loc.6) (not .loc.5)) (not .loc.7)) (not .loc.8)) (and (and (and (and (and (= hhv_ULTIMATE.start_ULTIMATE.startFINAL_1_Array_Int_Int hhv_ULTIMATE.start_ULTIMATE.startFINAL_2_Array_Int_Int) (= hhv_ULTIMATE.start_ULTIMATE.startFINAL_7_Array_Int_Int hhv_ULTIMATE.start_ULTIMATE.startFINAL_8_Array_Int_Int)) (= hhv_ULTIMATE.start_ULTIMATE.startFINAL_5_Int hhv_ULTIMATE.start_ULTIMATE.startFINAL_6_Int)) (= hhv_ULTIMATE.start_ULTIMATE.startFINAL_9_Int hhv_ULTIMATE.start_ULTIMATE.startFINAL_10_Int)) (= hhv_ULTIMATE.start_ULTIMATE.startFINAL_3_Array_Int_Array_Int_Int hhv_ULTIMATE.start_ULTIMATE.startFINAL_4_Array_Int_Array_Int_Int)) (not hhv_ULTIMATE.start_ULTIMATE.startFINAL_38_Bool))) (state |hhv_ULTIMATE.start_ULTIMATE.startFINAL_0_Int| |hhv_ULTIMATE.start_ULTIMATE.startFINAL_1_Array_Int_Int| |hhv_ULTIMATE.start_ULTIMATE.startFINAL_2_Array_Int_Int| |hhv_ULTIMATE.start_ULTIMATE.startFINAL_3_Array_Int_Array_Int_Int| |hhv_ULTIMATE.start_ULTIMATE.startFINAL_4_Array_Int_Array_Int_Int| |hhv_ULTIMATE.start_ULTIMATE.startFINAL_5_Int| |hhv_ULTIMATE.start_ULTIMATE.startFINAL_6_Int| |hhv_ULTIMATE.start_ULTIMATE.startFINAL_7_Array_Int_Int| |hhv_ULTIMATE.start_ULTIMATE.startFINAL_8_Array_Int_Int| |hhv_ULTIMATE.start_ULTIMATE.startFINAL_9_Int| |hhv_ULTIMATE.start_ULTIMATE.startFINAL_10_Int| |hhv_ULTIMATE.start_ULTIMATE.startFINAL_11_Int| |hhv_ULTIMATE.start_ULTIMATE.startFINAL_12_Int| |hhv_ULTIMATE.start_ULTIMATE.startFINAL_13_Int| |hhv_ULTIMATE.start_ULTIMATE.startFINAL_14_Int| |hhv_ULTIMATE.start_ULTIMATE.startFINAL_15_Int| |hhv_ULTIMATE.start_ULTIMATE.startFINAL_16_Int| |hhv_ULTIMATE.start_ULTIMATE.startFINAL_17_Int| |hhv_ULTIMATE.start_ULTIMATE.startFINAL_18_Int| |hbv_ULTIMATE.start_L59_19_Int| |hhv_ULTIMATE.start_ULTIMATE.startFINAL_20_Int| |hhv_ULTIMATE.start_ULTIMATE.startFINAL_21_Int| |hhv_ULTIMATE.start_ULTIMATE.startFINAL_22_Int| |hhv_ULTIMATE.start_ULTIMATE.startFINAL_23_Int| |hhv_ULTIMATE.start_ULTIMATE.startFINAL_24_Int| |hhv_ULTIMATE.start_ULTIMATE.startFINAL_25_Int| |hhv_ULTIMATE.start_ULTIMATE.startFINAL_26_Int| |hhv_ULTIMATE.start_ULTIMATE.startFINAL_27_Int| |hhv_ULTIMATE.start_ULTIMATE.startFINAL_28_Int| |hhv_ULTIMATE.start_ULTIMATE.startFINAL_29_Int| |hhv_ULTIMATE.start_ULTIMATE.startFINAL_30_Int| |hhv_ULTIMATE.start_ULTIMATE.startFINAL_31_Int| |hhv_ULTIMATE.start_ULTIMATE.startFINAL_32_Int| |hhv_ULTIMATE.start_ULTIMATE.startFINAL_33_Int| |hhv_ULTIMATE.start_ULTIMATE.startFINAL_34_Int| |hhv_ULTIMATE.start_ULTIMATE.startFINAL_35_Int| |hhv_ULTIMATE.start_ULTIMATE.startFINAL_36_Int| |hhv_ULTIMATE.start_ULTIMATE.startFINAL_37_Int| |hhv_ULTIMATE.start_ULTIMATE.startFINAL_38_Bool| |.loc.5| |.loc.6| |.loc.7| |.loc.8| |hbv_ULTIMATE.start_L27_35_Int| |hbv_ULTIMATE.start_L-1_1_Array_Int_Int| |hbv_ULTIMATE.start_L43_22_Int|))))
(assert (forall ((|hhv_ULTIMATE.start_ULTIMATE.startFINAL_0_Int| Int) (|hhv_ULTIMATE.start_ULTIMATE.startFINAL_1_Array_Int_Int| (Array Int Int)) (|hhv_ULTIMATE.start_ULTIMATE.startFINAL_2_Array_Int_Int| (Array Int Int)) (|hhv_ULTIMATE.start_ULTIMATE.startFINAL_3_Array_Int_Array_Int_Int| (Array Int Int)) (|hhv_ULTIMATE.start_ULTIMATE.startFINAL_4_Array_Int_Array_Int_Int| (Array Int Int)) (|hhv_ULTIMATE.start_ULTIMATE.startFINAL_5_Int| Int) (|hhv_ULTIMATE.start_ULTIMATE.startFINAL_6_Int| Int) (|hhv_ULTIMATE.start_ULTIMATE.startFINAL_7_Array_Int_Int| (Array Int Int)) (|hhv_ULTIMATE.start_ULTIMATE.startFINAL_8_Array_Int_Int| (Array Int Int)) (|hhv_ULTIMATE.start_ULTIMATE.startFINAL_9_Int| Int) (|hhv_ULTIMATE.start_ULTIMATE.startFINAL_10_Int| Int) (|hhv_ULTIMATE.start_ULTIMATE.startFINAL_11_Int| Int) (|hhv_ULTIMATE.start_ULTIMATE.startFINAL_12_Int| Int) (|hhv_ULTIMATE.start_ULTIMATE.startFINAL_13_Int| Int) (|hhv_ULTIMATE.start_ULTIMATE.startFINAL_14_Int| Int) (|hhv_ULTIMATE.start_ULTIMATE.startFINAL_15_Int| Int) (|hhv_ULTIMATE.start_ULTIMATE.startFINAL_16_Int| Int) (|hhv_ULTIMATE.start_ULTIMATE.startFINAL_17_Int| Int) (|hhv_ULTIMATE.start_ULTIMATE.startFINAL_18_Int| Int) (|hbv_ULTIMATE.start_L59_19_Int| Int) (|hhv_ULTIMATE.start_ULTIMATE.startFINAL_20_Int| Int) (|hhv_ULTIMATE.start_ULTIMATE.startFINAL_21_Int| Int) (|hhv_ULTIMATE.start_ULTIMATE.startFINAL_22_Int| Int) (|hhv_ULTIMATE.start_ULTIMATE.startFINAL_23_Int| Int) (|hhv_ULTIMATE.start_ULTIMATE.startFINAL_24_Int| Int) (|hhv_ULTIMATE.start_ULTIMATE.startFINAL_25_Int| Int) (|hhv_ULTIMATE.start_ULTIMATE.startFINAL_26_Int| Int) (|hhv_ULTIMATE.start_ULTIMATE.startFINAL_27_Int| Int) (|hhv_ULTIMATE.start_ULTIMATE.startFINAL_28_Int| Int) (|hhv_ULTIMATE.start_ULTIMATE.startFINAL_29_Int| Int) (|hhv_ULTIMATE.start_ULTIMATE.startFINAL_30_Int| Int) (|hhv_ULTIMATE.start_ULTIMATE.startFINAL_31_Int| Int) (|hhv_ULTIMATE.start_ULTIMATE.startFINAL_32_Int| Int) (|hhv_ULTIMATE.start_ULTIMATE.startFINAL_33_Int| Int) (|hhv_ULTIMATE.start_ULTIMATE.startFINAL_34_Int| Int) (|hhv_ULTIMATE.start_ULTIMATE.startFINAL_35_Int| Int) (|hhv_ULTIMATE.start_ULTIMATE.startFINAL_36_Int| Int) (|hhv_ULTIMATE.start_ULTIMATE.startFINAL_37_Int| Int) (|hhv_ULTIMATE.start_ULTIMATE.startFINAL_38_Bool| Bool) (|.loc.5| Bool) (|.loc.6| Bool) (|.loc.7| Bool) (|.loc.8| Bool) (|hbv_ULTIMATE.start_L27_35_Int| Int) (|hbv_ULTIMATE.start_L-1_1_Array_Int_Int| (Array Int Int)) (|hbv_ULTIMATE.start_L43_22_Int| Int) (|.x.472| Int) (|.x.470| (Array Int Int)) (|.x.468| Int) (|.x.466| (Array Int Int)) (|.x.462| Int) (|.x.464| (Array Int Int)) (|.x.481| Int) (|.x.474| Int) (|.x.491| Int) (|.x.496| Int) (|.x.500| Bool) (|.x.478| Int) (|.x.463| (Array Int Int)) (|.x.488| Int) (|.x.490| Int) (|.x.495| Int) (|.x.497| Int) (|.x.498| Int) (|.loc.9| Bool) (|.x.489| Int) (|.loc.11| Bool) (|.x.499| Int) (|.loc.10| Bool) (|.x.494| Int) (|.x.482| Int) (|.loc.12| Bool) (|.x.473| Int) (|.x.465| (Array Int Int)) (|.x.479| Int) (|.x.485| Int) (|.x.493| Int) (|.x.483| Int) (|.x.480| Int) (|.x.484| Int) (|.x.486| Int) (|.x.487| Int) (|.x.477| Int) (|.x.475| Int) (|.x.476| Int) (|.x.492| Int) (|.x.469| (Array Int Int)) (|.x.467| Int) (|.x.471| Int) (|.xtv.1| Int) (|.xtv.2| (Array Int Int)) (|.xtv.3| Int)) (=> (and (state |hhv_ULTIMATE.start_ULTIMATE.startFINAL_0_Int| |hhv_ULTIMATE.start_ULTIMATE.startFINAL_1_Array_Int_Int| |hhv_ULTIMATE.start_ULTIMATE.startFINAL_2_Array_Int_Int| |hhv_ULTIMATE.start_ULTIMATE.startFINAL_3_Array_Int_Array_Int_Int| |hhv_ULTIMATE.start_ULTIMATE.startFINAL_4_Array_Int_Array_Int_Int| |hhv_ULTIMATE.start_ULTIMATE.startFINAL_5_Int| |hhv_ULTIMATE.start_ULTIMATE.startFINAL_6_Int| |hhv_ULTIMATE.start_ULTIMATE.startFINAL_7_Array_Int_Int| |hhv_ULTIMATE.start_ULTIMATE.startFINAL_8_Array_Int_Int| |hhv_ULTIMATE.start_ULTIMATE.startFINAL_9_Int| |hhv_ULTIMATE.start_ULTIMATE.startFINAL_10_Int| |hhv_ULTIMATE.start_ULTIMATE.startFINAL_11_Int| |hhv_ULTIMATE.start_ULTIMATE.startFINAL_12_Int| |hhv_ULTIMATE.start_ULTIMATE.startFINAL_13_Int| |hhv_ULTIMATE.start_ULTIMATE.startFINAL_14_Int| |hhv_ULTIMATE.start_ULTIMATE.startFINAL_15_Int| |hhv_ULTIMATE.start_ULTIMATE.startFINAL_16_Int| |hhv_ULTIMATE.start_ULTIMATE.startFINAL_17_Int| |hhv_ULTIMATE.start_ULTIMATE.startFINAL_18_Int| |hbv_ULTIMATE.start_L59_19_Int| |hhv_ULTIMATE.start_ULTIMATE.startFINAL_20_Int| |hhv_ULTIMATE.start_ULTIMATE.startFINAL_21_Int| |hhv_ULTIMATE.start_ULTIMATE.startFINAL_22_Int| |hhv_ULTIMATE.start_ULTIMATE.startFINAL_23_Int| |hhv_ULTIMATE.start_ULTIMATE.startFINAL_24_Int| |hhv_ULTIMATE.start_ULTIMATE.startFINAL_25_Int| |hhv_ULTIMATE.start_ULTIMATE.startFINAL_26_Int| |hhv_ULTIMATE.start_ULTIMATE.startFINAL_27_Int| |hhv_ULTIMATE.start_ULTIMATE.startFINAL_28_Int| |hhv_ULTIMATE.start_ULTIMATE.startFINAL_29_Int| |hhv_ULTIMATE.start_ULTIMATE.startFINAL_30_Int| |hhv_ULTIMATE.start_ULTIMATE.startFINAL_31_Int| |hhv_ULTIMATE.start_ULTIMATE.startFINAL_32_Int| |hhv_ULTIMATE.start_ULTIMATE.startFINAL_33_Int| |hhv_ULTIMATE.start_ULTIMATE.startFINAL_34_Int| |hhv_ULTIMATE.start_ULTIMATE.startFINAL_35_Int| |hhv_ULTIMATE.start_ULTIMATE.startFINAL_36_Int| |hhv_ULTIMATE.start_ULTIMATE.startFINAL_37_Int| |hhv_ULTIMATE.start_ULTIMATE.startFINAL_38_Bool| |.loc.5| |.loc.6| |.loc.7| |.loc.8| |hbv_ULTIMATE.start_L27_35_Int| |hbv_ULTIMATE.start_L-1_1_Array_Int_Int| |hbv_ULTIMATE.start_L43_22_Int|) (let ((.def_56 (not .loc.6))) (let ((.def_57 (not .loc.5))) (let ((.def_59 (not .loc.7))) (let ((.def_61 (not .loc.8))) (let ((.def_96 (= hhv_ULTIMATE.start_ULTIMATE.startFINAL_12_Int .x.474))) (let ((.def_99 (= hhv_ULTIMATE.start_ULTIMATE.startFINAL_29_Int .x.491))) (let ((.def_102 (= hhv_ULTIMATE.start_ULTIMATE.startFINAL_34_Int .x.496))) (let ((.def_105 (= hhv_ULTIMATE.start_ULTIMATE.startFINAL_38_Bool .x.500))) (let ((.def_109 (= .x.474 0))) (let ((.def_113 (= hbv_ULTIMATE.start_L59_19_Int .x.481))) (let ((.def_118 (= .x.491 0))) (let ((.def_123 (or hhv_ULTIMATE.start_ULTIMATE.startFINAL_38_Bool (and (= .x.474 .x.496) (= .x.496 (ite (or (= .x.491 1) .def_118) 1 0)))))) (let ((.def_127 (= hhv_ULTIMATE.start_ULTIMATE.startFINAL_16_Int .x.478))) (let ((.def_129 (= hhv_ULTIMATE.start_ULTIMATE.startFINAL_1_Array_Int_Int .x.463))) (let ((.def_130 (and .def_127 .def_129))) (let ((.def_132 (= hhv_ULTIMATE.start_ULTIMATE.startFINAL_26_Int .x.488))) (let ((.def_135 (= hhv_ULTIMATE.start_ULTIMATE.startFINAL_28_Int .x.490))) (let ((.def_138 (= hhv_ULTIMATE.start_ULTIMATE.startFINAL_33_Int .x.495))) (let ((.def_141 (= hhv_ULTIMATE.start_ULTIMATE.startFINAL_35_Int .x.497))) (let ((.def_144 (= hhv_ULTIMATE.start_ULTIMATE.startFINAL_36_Int .x.498))) (let ((.def_150 (= hbv_ULTIMATE.start_L27_35_Int 0))) (let ((.def_151 (not .def_150))) (let ((.def_154 (= .x.463 (store (store hhv_ULTIMATE.start_ULTIMATE.startFINAL_1_Array_Int_Int hhv_ULTIMATE.start_ULTIMATE.startFINAL_26_Int 0) hhv_ULTIMATE.start_ULTIMATE.startFINAL_16_Int 0)))) (let ((.def_156 (= .x.495 0))) (let ((.def_160 (and .def_102 (and .def_96 .def_99)))) (let ((.def_164 (not .loc.9))) (let ((.def_170 (select hhv_ULTIMATE.start_ULTIMATE.startFINAL_3_Array_Int_Array_Int_Int hhv_ULTIMATE.start_ULTIMATE.startFINAL_16_Int))) (let ((.def_173 (or hhv_ULTIMATE.start_ULTIMATE.startFINAL_38_Bool (= hbv_ULTIMATE.start_L27_35_Int (select .def_170 (+ hhv_ULTIMATE.start_ULTIMATE.startFINAL_28_Int 4)))))) (let ((.def_177 (<= hhv_ULTIMATE.start_ULTIMATE.startFINAL_14_Int hhv_ULTIMATE.start_ULTIMATE.startFINAL_32_Int))) (let ((.def_192 (= hhv_ULTIMATE.start_ULTIMATE.startFINAL_27_Int .x.489))) (let ((.def_197 (= hhv_ULTIMATE.start_ULTIMATE.startFINAL_27_Int 0))) (let ((.def_200 (and .def_127 (and .def_96 .def_129)))) (let ((.def_207 (and .def_144 (and .def_141 (and .def_102 (and .def_138 (and .def_99 (and .def_135 (and .def_132 .def_200))))))))) (let ((.def_215 (not .loc.11))) (let ((.def_219 (and .def_154 .def_156))) (let ((.def_225 (and .def_105 (and .def_141 (and .def_102 (and .def_99 (and .def_96 .def_192))))))) (let ((.def_236 (= hhv_ULTIMATE.start_ULTIMATE.startFINAL_37_Int .x.499))) (let ((.def_249 (select hhv_ULTIMATE.start_ULTIMATE.startFINAL_3_Array_Int_Array_Int_Int hhv_ULTIMATE.start_ULTIMATE.startFINAL_26_Int))) (let ((.def_252 (or hhv_ULTIMATE.start_ULTIMATE.startFINAL_38_Bool (= hbv_ULTIMATE.start_L27_35_Int (select .def_249 (+ hhv_ULTIMATE.start_ULTIMATE.startFINAL_36_Int 4)))))) (let ((.def_255 (and hhv_ULTIMATE.start_ULTIMATE.startFINAL_38_Bool .def_129))) (let ((.def_257 (and .def_127 (and .def_96 .def_255)))) (let ((.def_283 (and .def_105 (and .def_207 .def_236)))) (let ((.def_291 (not .loc.10))) (let ((.def_296 (= hhv_ULTIMATE.start_ULTIMATE.startFINAL_32_Int .x.494))) (let ((.def_298 (= hhv_ULTIMATE.start_ULTIMATE.startFINAL_20_Int .x.482))) (let ((.def_385 (not .loc.12))) (let ((.def_401 (and .loc.6 (and .loc.5 (and .def_105 (and .def_236 (and .def_144 (and .def_141 (and .def_102 (and .def_138 (and .def_296 (and .def_99 (and .def_135 (and .def_192 (and .def_132 (and .def_200 .def_298)))))))))))))))) (let ((.def_410 (<= 5 hhv_ULTIMATE.start_ULTIMATE.startFINAL_23_Int))) (let ((.def_411 (or hhv_ULTIMATE.start_ULTIMATE.startFINAL_38_Bool .def_410))) (let ((.def_415 (= hhv_ULTIMATE.start_ULTIMATE.startFINAL_11_Int .x.473))) (let ((.def_417 (= hhv_ULTIMATE.start_ULTIMATE.startFINAL_3_Array_Int_Array_Int_Int .x.465))) (let ((.def_420 (= hhv_ULTIMATE.start_ULTIMATE.startFINAL_17_Int .x.479))) (let ((.def_423 (= hhv_ULTIMATE.start_ULTIMATE.startFINAL_23_Int .x.485))) (let ((.def_432 (not .def_410))) (let ((.def_449 (= (+ hhv_ULTIMATE.start_ULTIMATE.startFINAL_23_Int (* (- 1) .x.485)) (- 1)))) (let ((.def_450 (or .x.500 .def_449))) (let ((.def_456 (and .def_129 .def_417))) (let ((.def_458 (and .def_96 (and .def_415 .def_456)))) (let ((.def_460 (and .def_420 (and .def_127 .def_458)))) (let ((.def_461 (and .def_298 .def_460))) (let ((.def_466 (and .def_99 (and .def_135 (and .def_192 (and .def_132 (and .def_423 .def_461))))))) (let ((.def_485 (= hhv_ULTIMATE.start_ULTIMATE.startFINAL_31_Int .x.493))) (let ((.def_487 (= hhv_ULTIMATE.start_ULTIMATE.startFINAL_31_Int 0))) (let ((.def_509 (and .def_96 (and .def_415 (and .def_255 .def_417))))) (let ((.def_511 (and .def_420 (and .def_127 .def_509)))) (let ((.def_536 (<= hhv_ULTIMATE.start_ULTIMATE.startFINAL_32_Int hhv_ULTIMATE.start_ULTIMATE.startFINAL_18_Int))) (let ((.def_538 (<= hhv_ULTIMATE.start_ULTIMATE.startFINAL_14_Int hhv_ULTIMATE.start_ULTIMATE.startFINAL_23_Int))) (let ((.def_560 (= hhv_ULTIMATE.start_ULTIMATE.startFINAL_21_Int .x.483))) (let ((.def_562 (= hhv_ULTIMATE.start_ULTIMATE.startFINAL_18_Int .x.480))) (let ((.def_565 (= hhv_ULTIMATE.start_ULTIMATE.startFINAL_22_Int .x.484))) (let ((.def_568 (= hhv_ULTIMATE.start_ULTIMATE.startFINAL_24_Int .x.486))) (let ((.def_571 (= hhv_ULTIMATE.start_ULTIMATE.startFINAL_25_Int .x.487))) (let ((.def_577 (= hbv_ULTIMATE.start_L27_35_Int hbv_ULTIMATE.start_L43_22_Int))) (let ((.def_614 (or hhv_ULTIMATE.start_ULTIMATE.startFINAL_38_Bool (and (and (= hbv_ULTIMATE.start_L43_22_Int (select .def_170 (+ hhv_ULTIMATE.start_ULTIMATE.startFINAL_18_Int hhv_ULTIMATE.start_ULTIMATE.startFINAL_28_Int))) (and (not .def_536) (not .def_538))) (= hbv_ULTIMATE.start_L27_35_Int (select .def_249 (+ hhv_ULTIMATE.start_ULTIMATE.startFINAL_23_Int hhv_ULTIMATE.start_ULTIMATE.startFINAL_36_Int))))))) (let ((.def_625 (= .x.480 0))) (let ((.def_714 (= hhv_ULTIMATE.start_ULTIMATE.startFINAL_15_Int .x.477))) (let ((.def_716 (= hhv_ULTIMATE.start_ULTIMATE.startFINAL_13_Int .x.475))) (let ((.def_762 (= .x.485 0))) (let ((.def_765 (and .def_458 .def_716))) (let ((.def_772 (and .def_565 (and .def_560 (and .def_298 (and .def_562 (and .def_420 (and .def_127 (and .def_714 .def_765))))))))) (let ((.def_848 (and .def_105 (and .def_236 (and .def_144 (and .def_141 (and .def_102 (and .def_138 (and .def_296 (and .def_99 (and .def_135 (and .def_192 (and .def_132 (and .def_571 (and .def_568 (and .def_423 .def_772)))))))))))))))) (let ((.def_861 (= hhv_ULTIMATE.start_ULTIMATE.startFINAL_14_Int .x.476))) (let ((.def_863 (= hhv_ULTIMATE.start_ULTIMATE.startFINAL_30_Int .x.492))) (let ((.def_921 (= hhv_ULTIMATE.start_ULTIMATE.startFINAL_7_Array_Int_Int .x.469))) (let ((.def_923 (= hhv_ULTIMATE.start_ULTIMATE.startFINAL_5_Int .x.467))) (let ((.def_926 (= hhv_ULTIMATE.start_ULTIMATE.startFINAL_9_Int .x.471))) (let ((.def_953 (store hbv_ULTIMATE.start_L-1_1_Array_Int_Int .x.488 1))) (and (and (= hhv_ULTIMATE.start_ULTIMATE.startFINAL_10_Int .x.472) (and (= hhv_ULTIMATE.start_ULTIMATE.startFINAL_8_Array_Int_Int .x.470) (and (= hhv_ULTIMATE.start_ULTIMATE.startFINAL_6_Int .x.468) (and (= hhv_ULTIMATE.start_ULTIMATE.startFINAL_4_Array_Int_Array_Int_Int .x.466) (and (= hhv_ULTIMATE.start_ULTIMATE.startFINAL_0_Int .x.462) (= hhv_ULTIMATE.start_ULTIMATE.startFINAL_2_Array_Int_Int .x.464)))))) (or (or (and (or (or (and (or (or (or (or (and (or (or (or (or (and (or (or (or (and (or (or (and (or (or (and (or (or (or (and (or (and (or (or (and (or (or (and (or (and .loc.7 (or (and (or (and .loc.6 (and (and (and (and (or hhv_ULTIMATE.start_ULTIMATE.startFINAL_38_Bool (= hhv_ULTIMATE.start_ULTIMATE.startFINAL_33_Int .x.481)) .def_96) .def_99) .def_102) .def_105)) (and (and (and (or hhv_ULTIMATE.start_ULTIMATE.startFINAL_38_Bool .def_109) (and .def_56 .x.500)) .def_113) .def_123)) (and (and .loc.8 (and (and (and (and (and .def_130 .def_132) .def_135) .def_138) .def_141) .def_144)) .loc.9)) (and (and (or .x.500 (and (and .def_151 .def_154) .def_156)) (and .def_61 (and (and .def_113 (and .def_56 (and .def_105 .def_160))) .def_164))) .def_173))) (and (or hhv_ULTIMATE.start_ULTIMATE.startFINAL_38_Bool (and .def_154 (and .def_156 (not .def_177)))) (and .def_59 (and .def_164 (and .def_113 (and .loc.8 (and .loc.6 (and .def_105 (and .def_141 .def_160))))))))) (and (and .def_57 .def_192) .loc.11)) (and (or hhv_ULTIMATE.start_ULTIMATE.startFINAL_38_Bool .def_197) (and (and .def_59 (and .def_164 (and .def_113 (and .def_56 (and .loc.8 (and .loc.5 (and .def_105 .def_207))))))) .def_215))) (and (or hhv_ULTIMATE.start_ULTIMATE.startFINAL_38_Bool .def_219) (and .def_164 (and .def_113 (and .def_56 (and .loc.11 (and .loc.8 (and .loc.7 (and .loc.5 .def_225))))))))) .def_236) (and (and (or .x.500 (and .def_151 .def_219)) (and .def_59 (and .def_61 (and .def_164 (and .def_113 (and .loc.11 (and .def_57 (and .loc.6 .def_225)))))))) .def_252)) (and .def_215 (and .def_59 (and .def_164 (and .def_113 (and .def_56 (and .def_57 (and .loc.8 (and .def_105 (and .def_236 (and .def_144 (and .def_141 (and .def_102 (and .def_138 (and .def_99 (and .def_135 (and .def_192 (and .def_132 .def_257)))))))))))))))))) .loc.10) (and (or hhv_ULTIMATE.start_ULTIMATE.startFINAL_38_Bool (= .x.489 (select .def_170 (+ hhv_ULTIMATE.start_ULTIMATE.startFINAL_28_Int hhv_ULTIMATE.start_ULTIMATE.startFINAL_32_Int)))) (and (and .def_215 (and .def_59 (and .def_113 (and .def_56 (and .loc.9 (and .def_57 (and .loc.8 .def_283))))))) .def_291))) (and .def_296 .def_298)) (and (or hhv_ULTIMATE.start_ULTIMATE.startFINAL_38_Bool (and (= (+ hhv_ULTIMATE.start_ULTIMATE.startFINAL_32_Int (* (- 1) .x.494)) (- 1)) (not .def_197))) (and .def_291 (and .def_215 (and .def_59 (and .def_164 (and .def_113 (and .def_56 (and .loc.8 (and .loc.5 .def_283)))))))))) (and (or .x.500 (not .def_109)) (and .def_291 (and .def_123 (and .def_113 (and .def_56 (and .loc.11 (and .loc.9 (and .def_57 (and .loc.8 (and .loc.7 (and .def_105 (and .def_236 (and .def_144 (and .def_141 (and .def_138 (and .def_296 (and .def_135 (and .def_192 (and .def_132 (and .def_130 .def_298))))))))))))))))))))) (and .def_291 (and .def_123 (and .def_113 (and .def_56 (and .loc.11 (and .loc.9 (and .def_57 (and .loc.8 (and .loc.7 (and .def_236 (and .def_144 (and .def_141 (and .def_138 (and .def_296 (and .def_135 (and .def_192 (and .def_132 (and .def_298 (and .def_127 (and .def_129 (and hhv_ULTIMATE.start_ULTIMATE.startFINAL_38_Bool .x.500)))))))))))))))))))))) .loc.12) (and (and .def_291 (and .def_59 (and .def_61 (and .def_164 (and .def_113 (and .loc.11 (and .loc.6 (and .loc.5 (and .def_105 (and .def_236 (and .def_144 (and .def_141 (and .def_102 (and .def_138 (and .def_296 (and .def_99 (and .def_135 (and .def_192 (and .def_132 (and .def_257 .def_298)))))))))))))))))))) .def_385)) (and (and .def_385 (and .def_291 (and .def_59 (and .def_61 (and .def_164 (and .def_113 (and .loc.11 .def_401))))))) .def_411)) (and (and (and .def_415 .def_417) .def_420) .def_423)) (and (or hhv_ULTIMATE.start_ULTIMATE.startFINAL_38_Bool (and (and (= .x.465 (store hhv_ULTIMATE.start_ULTIMATE.startFINAL_3_Array_Int_Array_Int_Int hhv_ULTIMATE.start_ULTIMATE.startFINAL_16_Int (store .def_170 (+ hhv_ULTIMATE.start_ULTIMATE.startFINAL_23_Int hhv_ULTIMATE.start_ULTIMATE.startFINAL_28_Int) hhv_ULTIMATE.start_ULTIMATE.startFINAL_11_Int))) (and (<= hhv_ULTIMATE.start_ULTIMATE.startFINAL_11_Int 127) .def_432)) (<= (- 128) hhv_ULTIMATE.start_ULTIMATE.startFINAL_11_Int))) (and (and .def_385 (and .def_215 (and .def_59 (and .def_61 (and .def_113 (and .loc.10 (and .loc.9 .def_401))))))) .def_450))) (and (or hhv_ULTIMATE.start_ULTIMATE.startFINAL_38_Bool (= .x.494 0)) (and .def_291 (and .def_215 (and .def_61 (and .def_164 (and .def_113 (and .loc.12 (and .loc.7 (and .loc.6 (and .loc.5 (and .def_105 (and .def_236 (and .def_144 (and .def_141 (and .def_102 (and .def_138 .def_466))))))))))))))))) .def_485) (and (or hhv_ULTIMATE.start_ULTIMATE.startFINAL_38_Bool .def_487) (and .def_385 (and .def_61 (and .def_113 (and .loc.11 (and .loc.10 (and .loc.9 (and .def_57 (and .loc.7 (and .loc.6 (and .def_105 (and .def_236 (and .def_144 (and .def_141 (and .def_102 (and .def_138 (and .def_296 .def_466)))))))))))))))))) (and .def_291 (and .def_59 (and .def_164 (and .def_113 (and .loc.12 (and .loc.11 (and .loc.8 (and .loc.6 (and .loc.5 (and .def_105 (and .def_236 (and .def_144 (and .def_141 (and .def_102 (and .def_138 (and .def_296 (and .def_485 (and .def_99 (and .def_135 (and .def_192 (and .def_132 (and .def_423 (and .def_298 .def_511)))))))))))))))))))))))) (and (or (or hhv_ULTIMATE.start_ULTIMATE.startFINAL_38_Bool .def_536) .def_538) (and .def_291 (and .def_59 (and .def_164 (and .def_113 (and .loc.12 (and .loc.11 (and .loc.8 (and .loc.6 (and .loc.5 (and .def_105 (and .def_236 (and .def_144 (and .def_141 (and .def_102 (and .def_138 (and .def_296 (and .def_466 .def_485))))))))))))))))))) (and (and (and (and .def_560 .def_562) .def_565) .def_568) .def_571)) (and (and (or .x.500 (and .def_449 (and (= (+ hhv_ULTIMATE.start_ULTIMATE.startFINAL_18_Int (* (- 1) .x.480)) (- 1)) .def_577))) (and .def_215 (and .def_59 (and .def_113 (and .loc.12 (and .loc.10 (and .loc.9 (and .loc.8 (and .loc.6 (and .loc.5 (and .def_105 (and .def_236 (and .def_144 (and .def_141 (and .def_102 (and .def_138 (and .def_296 (and .def_485 (and .def_99 (and .def_135 (and .def_192 (and .def_132 .def_461)))))))))))))))))))))) .def_614)) (and (or .x.500 (and (and (= (+ hhv_ULTIMATE.start_ULTIMATE.startFINAL_18_Int (+ (* (- 1) hhv_ULTIMATE.start_ULTIMATE.startFINAL_23_Int) .x.485)) 1) (not .def_577)) .def_625)) (and .def_614 (and .def_215 (and .def_59 (and .def_113 (and .loc.12 (and .loc.10 (and .loc.9 (and .loc.8 (and .loc.6 (and .loc.5 (and .def_105 (and .def_236 (and .def_144 (and .def_141 (and .def_102 (and .def_138 (and .def_296 (and .def_485 (and .def_99 (and .def_135 (and .def_192 (and .def_132 (and .def_571 (and .def_461 .def_568)))))))))))))))))))))))))) (and .def_385 (and .def_215 (and .def_59 (and .def_61 (and .def_164 (and .def_113 (and .def_56 (and .loc.10 (and .loc.5 (and .def_105 (and .def_236 (and .def_144 (and .def_141 (and .def_102 (and .def_138 (and .def_296 (and .def_485 (and .def_99 (and .def_135 (and .def_192 (and .def_132 (and .def_571 (and .def_568 (and .def_423 (and .def_565 (and .def_560 (and .def_298 (and .def_511 .def_562))))))))))))))))))))))))))))) (and .def_411 (and .def_385 (and .def_215 (and .def_59 (and .def_61 (and .def_164 (and .def_113 (and .def_56 (and .loc.10 (and .loc.5 (and .def_105 (and .def_236 (and .def_144 (and .def_141 (and .def_102 (and .def_138 (and .def_296 (and .def_485 (and .def_99 (and .def_135 (and .def_192 (and .def_132 (and .def_571 (and .def_568 (and .def_423 (and .def_565 (and .def_560 (and .def_298 (and .def_460 .def_562)))))))))))))))))))))))))))))) (and .def_714 .def_716)) (and (or hhv_ULTIMATE.start_ULTIMATE.startFINAL_38_Bool (and (and (and .def_432 (= .x.465 (store hhv_ULTIMATE.start_ULTIMATE.startFINAL_3_Array_Int_Array_Int_Int hhv_ULTIMATE.start_ULTIMATE.startFINAL_26_Int (store .def_249 (+ hhv_ULTIMATE.start_ULTIMATE.startFINAL_23_Int hhv_ULTIMATE.start_ULTIMATE.startFINAL_36_Int) hhv_ULTIMATE.start_ULTIMATE.startFINAL_13_Int)))) (<= (- 128) hhv_ULTIMATE.start_ULTIMATE.startFINAL_13_Int)) (<= hhv_ULTIMATE.start_ULTIMATE.startFINAL_13_Int 127))) (and .def_450 (and .def_385 (and .def_291 (and .def_215 (and .def_59 (and .def_61 (and .def_113 (and .def_56 (and .loc.9 (and .loc.5 (and .def_105 (and .def_236 (and .def_144 (and .def_141 (and .def_102 (and .def_138 (and .def_296 (and .def_485 (and .def_99 (and .def_135 (and .def_192 (and .def_132 (and .def_571 (and .def_568 (and .def_565 (and .def_560 (and .def_298 (and .def_562 (and .def_420 (and .def_127 (and .def_96 (and .def_129 .def_415)))))))))))))))))))))))))))))))))) (and (or .x.500 (and .def_150 .def_762)) (and .def_385 (and .def_252 (and .def_215 (and .def_59 (and .def_61 (and .def_113 (and .loc.10 (and .loc.9 (and .def_57 (and .loc.6 (and .def_105 (and .def_144 (and .def_141 (and .def_102 (and .def_138 (and .def_296 (and .def_485 (and .def_99 (and .def_135 (and .def_192 (and .def_132 (and .def_571 (and .def_568 .def_772))))))))))))))))))))))))) (and .def_385 (and .def_61 (and .def_113 (and .def_56 (and .loc.11 (and .loc.10 (and .loc.9 (and .loc.7 (and .loc.5 (and .def_105 (and .def_236 (and .def_144 (and .def_141 (and .def_102 (and .def_138 (and .def_296 (and .def_485 (and .def_99 (and .def_135 (and .def_192 (and .def_132 (and .def_571 (and .def_568 (and .def_423 (and .def_565 (and .def_560 (and .def_298 (and .def_562 (and .def_420 (and .def_127 (and .def_714 (and .def_509 .def_716))))))))))))))))))))))))))))))))) (and (or hhv_ULTIMATE.start_ULTIMATE.startFINAL_38_Bool (= .x.493 (select .def_249 (+ hhv_ULTIMATE.start_ULTIMATE.startFINAL_14_Int hhv_ULTIMATE.start_ULTIMATE.startFINAL_36_Int)))) (and .def_385 (and .def_61 (and .def_164 (and .def_113 (and .def_56 (and .loc.11 (and .loc.10 (and .loc.7 (and .loc.5 .def_848))))))))))) (and .def_861 .def_863)) (and (or hhv_ULTIMATE.start_ULTIMATE.startFINAL_38_Bool (and (= (+ hhv_ULTIMATE.start_ULTIMATE.startFINAL_14_Int (* (- 1) .x.476)) (- 1)) (not .def_487))) (and .def_385 (and .def_291 (and .def_61 (and .def_113 (and .loc.11 (and .loc.9 (and .def_57 (and .loc.7 (and .loc.6 .def_848))))))))))) (and (or hhv_ULTIMATE.start_ULTIMATE.startFINAL_38_Bool (and .def_625 (and .def_177 (= .x.485 .x.480)))) (and .def_215 (and .def_59 (and .def_113 (and .loc.12 (and .loc.10 (and .loc.9 (and .def_57 (and .loc.8 (and .loc.6 (and .def_105 (and .def_236 (and .def_144 (and .def_141 (and .def_102 (and .def_138 (and .def_296 (and .def_485 (and .def_863 (and .def_99 (and .def_135 (and .def_192 (and .def_132 (and .def_571 (and .def_568 (and .def_565 (and .def_560 (and .def_298 (and .def_420 (and .def_127 (and .def_714 (and .def_765 .def_861))))))))))))))))))))))))))))))))) (and (and .def_921 .def_923) .def_926)) (and (or hhv_ULTIMATE.start_ULTIMATE.startFINAL_38_Bool (and (and (= .x.467 0) (= .x.471 0)) (= hbv_ULTIMATE.start_L-1_1_Array_Int_Int (store hhv_ULTIMATE.start_ULTIMATE.startFINAL_1_Array_Int_Int 0 0)))) (and (or .x.500 (and .def_118 (and (and (and (and (and (and (and .def_762 (and (and (and (not (<= .x.462 .x.478)) (not (<= .x.462 .x.488))) (= .x.498 0)) (not (= .x.488 0)))) (= (select hbv_ULTIMATE.start_L-1_1_Array_Int_Int .x.488) 0)) (not (= .x.478 0))) (= .x.463 (store .def_953 .x.478 1))) (= .x.490 0)) (= (select .def_953 .x.478) 0)) (= .x.469 (store (store hhv_ULTIMATE.start_ULTIMATE.startFINAL_7_Array_Int_Int .x.488 5) .x.478 5))))) (and .def_385 (and .def_291 (and .def_215 (and .def_59 (and .def_61 (and .def_113 (and .def_56 (and .loc.9 (and .def_57 (and .def_105 (and .def_102 (and .def_96 .def_417))))))))))))))) (and (or .x.500 (and .def_150 (= .x.476 0))) (and .def_385 (and .def_291 (and .def_173 (and .def_61 (and .def_113 (and .def_56 (and .loc.11 (and .loc.9 (and .def_57 (and .loc.7 (and .def_105 (and .def_236 (and .def_144 (and .def_102 (and .def_138 (and .def_296 (and .def_485 (and .def_863 (and .def_99 (and .def_135 (and .def_192 (and .def_132 (and .def_571 (and .def_568 (and .def_423 (and .def_565 (and .def_560 (and .def_298 (and .def_562 (and .def_420 (and .def_127 (and .def_714 (and .def_716 (and .def_96 (and .def_415 (and .def_926 (and .def_921 (and .def_456 .def_923))))))))))))))))))))))))))))))))))))))))))))))))))))))))))))))))))))))))))))))))))))))))))))))))))))))))))))))))))))))))))))))))) (state |.x.462| |.x.463| |.x.464| |.x.465| |.x.466| |.x.467| |.x.468| |.x.469| |.x.470| |.x.471| |.x.472| |.x.473| |.x.474| |.x.475| |.x.476| |.x.477| |.x.478| |.x.479| |.x.480| |.x.481| |.x.482| |.x.483| |.x.484| |.x.485| |.x.486| |.x.487| |.x.488| |.x.489| |.x.490| |.x.491| |.x.492| |.x.493| |.x.494| |.x.495| |.x.496| |.x.497| |.x.498| |.x.499| |.x.500| |.loc.9| |.loc.10| |.loc.11| |.loc.12| |.xtv.1| |.xtv.2| |.xtv.3|))))
(assert (forall ((|hhv_ULTIMATE.start_ULTIMATE.startFINAL_0_Int| Int) (|hhv_ULTIMATE.start_ULTIMATE.startFINAL_1_Array_Int_Int| (Array Int Int)) (|hhv_ULTIMATE.start_ULTIMATE.startFINAL_2_Array_Int_Int| (Array Int Int)) (|hhv_ULTIMATE.start_ULTIMATE.startFINAL_3_Array_Int_Array_Int_Int| (Array Int Int)) (|hhv_ULTIMATE.start_ULTIMATE.startFINAL_4_Array_Int_Array_Int_Int| (Array Int Int)) (|hhv_ULTIMATE.start_ULTIMATE.startFINAL_5_Int| Int) (|hhv_ULTIMATE.start_ULTIMATE.startFINAL_6_Int| Int) (|hhv_ULTIMATE.start_ULTIMATE.startFINAL_7_Array_Int_Int| (Array Int Int)) (|hhv_ULTIMATE.start_ULTIMATE.startFINAL_8_Array_Int_Int| (Array Int Int)) (|hhv_ULTIMATE.start_ULTIMATE.startFINAL_9_Int| Int) (|hhv_ULTIMATE.start_ULTIMATE.startFINAL_10_Int| Int) (|hhv_ULTIMATE.start_ULTIMATE.startFINAL_11_Int| Int) (|hhv_ULTIMATE.start_ULTIMATE.startFINAL_12_Int| Int) (|hhv_ULTIMATE.start_ULTIMATE.startFINAL_13_Int| Int) (|hhv_ULTIMATE.start_ULTIMATE.startFINAL_14_Int| Int) (|hhv_ULTIMATE.start_ULTIMATE.startFINAL_15_Int| Int) (|hhv_ULTIMATE.start_ULTIMATE.startFINAL_16_Int| Int) (|hhv_ULTIMATE.start_ULTIMATE.startFINAL_17_Int| Int) (|hhv_ULTIMATE.start_ULTIMATE.startFINAL_18_Int| Int) (|hbv_ULTIMATE.start_L59_19_Int| Int) (|hhv_ULTIMATE.start_ULTIMATE.startFINAL_20_Int| Int) (|hhv_ULTIMATE.start_ULTIMATE.startFINAL_21_Int| Int) (|hhv_ULTIMATE.start_ULTIMATE.startFINAL_22_Int| Int) (|hhv_ULTIMATE.start_ULTIMATE.startFINAL_23_Int| Int) (|hhv_ULTIMATE.start_ULTIMATE.startFINAL_24_Int| Int) (|hhv_ULTIMATE.start_ULTIMATE.startFINAL_25_Int| Int) (|hhv_ULTIMATE.start_ULTIMATE.startFINAL_26_Int| Int) (|hhv_ULTIMATE.start_ULTIMATE.startFINAL_27_Int| Int) (|hhv_ULTIMATE.start_ULTIMATE.startFINAL_28_Int| Int) (|hhv_ULTIMATE.start_ULTIMATE.startFINAL_29_Int| Int) (|hhv_ULTIMATE.start_ULTIMATE.startFINAL_30_Int| Int) (|hhv_ULTIMATE.start_ULTIMATE.startFINAL_31_Int| Int) (|hhv_ULTIMATE.start_ULTIMATE.startFINAL_32_Int| Int) (|hhv_ULTIMATE.start_ULTIMATE.startFINAL_33_Int| Int) (|hhv_ULTIMATE.start_ULTIMATE.startFINAL_34_Int| Int) (|hhv_ULTIMATE.start_ULTIMATE.startFINAL_35_Int| Int) (|hhv_ULTIMATE.start_ULTIMATE.startFINAL_36_Int| Int) (|hhv_ULTIMATE.start_ULTIMATE.startFINAL_37_Int| Int) (|hhv_ULTIMATE.start_ULTIMATE.startFINAL_38_Bool| Bool) (|.loc.5| Bool) (|.loc.6| Bool) (|.loc.7| Bool) (|.loc.8| Bool) (|hbv_ULTIMATE.start_L27_35_Int| Int) (|hbv_ULTIMATE.start_L-1_1_Array_Int_Int| (Array Int Int)) (|hbv_ULTIMATE.start_L43_22_Int| Int) (|.x.472| Int) (|.x.470| (Array Int Int)) (|.x.468| Int) (|.x.466| (Array Int Int)) (|.x.462| Int) (|.x.464| (Array Int Int)) (|.x.481| Int) (|.x.474| Int) (|.x.491| Int) (|.x.496| Int) (|.x.500| Bool) (|.x.478| Int) (|.x.463| (Array Int Int)) (|.x.488| Int) (|.x.490| Int) (|.x.495| Int) (|.x.497| Int) (|.x.498| Int) (|.loc.9| Bool) (|.x.489| Int) (|.loc.11| Bool) (|.x.499| Int) (|.loc.10| Bool) (|.x.494| Int) (|.x.482| Int) (|.loc.12| Bool) (|.x.473| Int) (|.x.465| (Array Int Int)) (|.x.479| Int) (|.x.485| Int) (|.x.493| Int) (|.x.483| Int) (|.x.480| Int) (|.x.484| Int) (|.x.486| Int) (|.x.487| Int) (|.x.477| Int) (|.x.475| Int) (|.x.476| Int) (|.x.492| Int) (|.x.469| (Array Int Int)) (|.x.467| Int) (|.x.471| Int) (|.xtv.1| Int) (|.xtv.2| (Array Int Int)) (|.xtv.3| Int)) (=> (state |hhv_ULTIMATE.start_ULTIMATE.startFINAL_0_Int| |hhv_ULTIMATE.start_ULTIMATE.startFINAL_1_Array_Int_Int| |hhv_ULTIMATE.start_ULTIMATE.startFINAL_2_Array_Int_Int| |hhv_ULTIMATE.start_ULTIMATE.startFINAL_3_Array_Int_Array_Int_Int| |hhv_ULTIMATE.start_ULTIMATE.startFINAL_4_Array_Int_Array_Int_Int| |hhv_ULTIMATE.start_ULTIMATE.startFINAL_5_Int| |hhv_ULTIMATE.start_ULTIMATE.startFINAL_6_Int| |hhv_ULTIMATE.start_ULTIMATE.startFINAL_7_Array_Int_Int| |hhv_ULTIMATE.start_ULTIMATE.startFINAL_8_Array_Int_Int| |hhv_ULTIMATE.start_ULTIMATE.startFINAL_9_Int| |hhv_ULTIMATE.start_ULTIMATE.startFINAL_10_Int| |hhv_ULTIMATE.start_ULTIMATE.startFINAL_11_Int| |hhv_ULTIMATE.start_ULTIMATE.startFINAL_12_Int| |hhv_ULTIMATE.start_ULTIMATE.startFINAL_13_Int| |hhv_ULTIMATE.start_ULTIMATE.startFINAL_14_Int| |hhv_ULTIMATE.start_ULTIMATE.startFINAL_15_Int| |hhv_ULTIMATE.start_ULTIMATE.startFINAL_16_Int| |hhv_ULTIMATE.start_ULTIMATE.startFINAL_17_Int| |hhv_ULTIMATE.start_ULTIMATE.startFINAL_18_Int| |hbv_ULTIMATE.start_L59_19_Int| |hhv_ULTIMATE.start_ULTIMATE.startFINAL_20_Int| |hhv_ULTIMATE.start_ULTIMATE.startFINAL_21_Int| |hhv_ULTIMATE.start_ULTIMATE.startFINAL_22_Int| |hhv_ULTIMATE.start_ULTIMATE.startFINAL_23_Int| |hhv_ULTIMATE.start_ULTIMATE.startFINAL_24_Int| |hhv_ULTIMATE.start_ULTIMATE.startFINAL_25_Int| |hhv_ULTIMATE.start_ULTIMATE.startFINAL_26_Int| |hhv_ULTIMATE.start_ULTIMATE.startFINAL_27_Int| |hhv_ULTIMATE.start_ULTIMATE.startFINAL_28_Int| |hhv_ULTIMATE.start_ULTIMATE.startFINAL_29_Int| |hhv_ULTIMATE.start_ULTIMATE.startFINAL_30_Int| |hhv_ULTIMATE.start_ULTIMATE.startFINAL_31_Int| |hhv_ULTIMATE.start_ULTIMATE.startFINAL_32_Int| |hhv_ULTIMATE.start_ULTIMATE.startFINAL_33_Int| |hhv_ULTIMATE.start_ULTIMATE.startFINAL_34_Int| |hhv_ULTIMATE.start_ULTIMATE.startFINAL_35_Int| |hhv_ULTIMATE.start_ULTIMATE.startFINAL_36_Int| |hhv_ULTIMATE.start_ULTIMATE.startFINAL_37_Int| |hhv_ULTIMATE.start_ULTIMATE.startFINAL_38_Bool| |.loc.5| |.loc.6| |.loc.7| |.loc.8| |hbv_ULTIMATE.start_L27_35_Int| |hbv_ULTIMATE.start_L-1_1_Array_Int_Int| |hbv_ULTIMATE.start_L43_22_Int|) (not (and hhv_ULTIMATE.start_ULTIMATE.startFINAL_38_Bool (and .loc.8 (and .loc.7 (and .loc.5 .loc.6))))))))
(check-sat)
